NAME MasterProb
ROWS
 N  OBJ
 L  c0      
 L  c1      
 L  c2      
 L  c3      
 L  c4      
 L  c5      
 L  c6      
 L  c7      
 L  c8      
 L  c9      
 L  c10     
 L  c11     
 L  c12     
 L  c13     
 L  c14     
 L  c15     
 L  c16     
 L  c17     
 L  c18     
 L  c19     
 L  c20     
 L  c21     
 L  c22     
 L  c23     
 L  c24     
 L  c25     
 L  c26     
 L  c27     
 L  c28     
 L  c29     
 L  c30     
 L  c31     
 L  c32     
 L  c33     
 L  c34     
 L  c35     
 L  c36     
 L  c37     
 L  c38     
 L  c39     
 L  c40     
 L  c41     
 L  c42     
 L  c43     
 L  c44     
 L  c45     
 L  c46     
 G  c47     
 G  c48     
 G  c49     
 G  c50     
 G  c51     
COLUMNS
    MARKER    'MARKER'                 'INTORG'
    X[1,1,1]  OBJ       3.8799462568176295e+02
    X[1,1,1]  c0        345
    X[1,1,1]  c2        1
    X[1,1,1]  c17       1
    X[1,1,2]  OBJ       3.5954168646510025e+03
    X[1,1,2]  c0        3.1969999999999995e+03
    X[1,1,2]  c3        1
    X[1,1,2]  c18       1
    X[1,1,3]  OBJ       5.1732616757568383e+02
    X[1,1,3]  c0        4.5999999999999994e+02
    X[1,1,3]  c4        1
    X[1,1,3]  c19       1
    X[1,2,1]  OBJ       3.8799462568176295e+02
    X[1,2,1]  c0        345
    X[1,2,1]  c5        1
    X[1,2,1]  c20       1
    X[1,2,2]  OBJ       3.5954168646510025e+03
    X[1,2,2]  c0        3.1969999999999995e+03
    X[1,2,2]  c6        1
    X[1,2,2]  c21       1
    X[1,2,3]  OBJ       5.1732616757568383e+02
    X[1,2,3]  c0        4.5999999999999994e+02
    X[1,2,3]  c7        1
    X[1,2,3]  c22       1
    X[1,3,1]  OBJ       3.8799462568176295e+02
    X[1,3,1]  c0        345
    X[1,3,1]  c8        1
    X[1,3,1]  c23       1
    X[1,3,2]  OBJ       3.5954168646510025e+03
    X[1,3,2]  c0        3.1969999999999995e+03
    X[1,3,2]  c9        1
    X[1,3,2]  c24       1
    X[1,3,3]  OBJ       5.1732616757568383e+02
    X[1,3,3]  c0        4.5999999999999994e+02
    X[1,3,3]  c10       1
    X[1,3,3]  c25       1
    X[1,4,1]  OBJ       3.8799462568176295e+02
    X[1,4,1]  c0        345
    X[1,4,1]  c11       1
    X[1,4,1]  c26       1
    X[1,4,2]  OBJ       3.5954168646510025e+03
    X[1,4,2]  c0        3.1969999999999995e+03
    X[1,4,2]  c12       1
    X[1,4,2]  c27       1
    X[1,4,3]  OBJ       5.1732616757568383e+02
    X[1,4,3]  c0        4.5999999999999994e+02
    X[1,4,3]  c13       1
    X[1,4,3]  c28       1
    X[1,5,1]  OBJ       3.8799462568176295e+02
    X[1,5,1]  c0        345
    X[1,5,1]  c14       1
    X[1,5,1]  c29       1
    X[1,5,2]  OBJ       3.5954168646510025e+03
    X[1,5,2]  c0        3.1969999999999995e+03
    X[1,5,2]  c15       1
    X[1,5,2]  c30       1
    X[1,5,3]  OBJ       5.1732616757568383e+02
    X[1,5,3]  c0        4.5999999999999994e+02
    X[1,5,3]  c16       1
    X[1,5,3]  c31       1
    X[2,1,1]  OBJ       3.7163998550568760e+02
    X[2,1,1]  c1        345
    X[2,1,1]  c2        1
    X[2,1,1]  c32       1
    X[2,1,2]  OBJ       3.4438638656860380e+03
    X[2,1,2]  c1        3.1969999999999995e+03
    X[2,1,2]  c3        1
    X[2,1,2]  c33       1
    X[2,1,3]  OBJ       4.9551998067425012e+02
    X[2,1,3]  c1        4.5999999999999994e+02
    X[2,1,3]  c4        1
    X[2,1,3]  c34       1
    X[2,2,1]  OBJ       3.7163998550568760e+02
    X[2,2,1]  c1        345
    X[2,2,1]  c5        1
    X[2,2,1]  c35       1
    X[2,2,2]  OBJ       3.4438638656860380e+03
    X[2,2,2]  c1        3.1969999999999995e+03
    X[2,2,2]  c6        1
    X[2,2,2]  c36       1
    X[2,2,3]  OBJ       4.9551998067425012e+02
    X[2,2,3]  c1        4.5999999999999994e+02
    X[2,2,3]  c7        1
    X[2,2,3]  c37       1
    X[2,3,1]  OBJ       3.7163998550568760e+02
    X[2,3,1]  c1        345
    X[2,3,1]  c8        1
    X[2,3,1]  c38       1
    X[2,3,2]  OBJ       3.4438638656860380e+03
    X[2,3,2]  c1        3.1969999999999995e+03
    X[2,3,2]  c9        1
    X[2,3,2]  c39       1
    X[2,3,3]  OBJ       4.9551998067425012e+02
    X[2,3,3]  c1        4.5999999999999994e+02
    X[2,3,3]  c10       1
    X[2,3,3]  c40       1
    X[2,4,1]  OBJ       3.7163998550568760e+02
    X[2,4,1]  c1        345
    X[2,4,1]  c11       1
    X[2,4,1]  c41       1
    X[2,4,2]  OBJ       3.4438638656860380e+03
    X[2,4,2]  c1        3.1969999999999995e+03
    X[2,4,2]  c12       1
    X[2,4,2]  c42       1
    X[2,4,3]  OBJ       4.9551998067425012e+02
    X[2,4,3]  c1        4.5999999999999994e+02
    X[2,4,3]  c13       1
    X[2,4,3]  c43       1
    X[2,5,1]  OBJ       3.7163998550568760e+02
    X[2,5,1]  c1        345
    X[2,5,1]  c14       1
    X[2,5,1]  c44       1
    X[2,5,2]  OBJ       3.4438638656860380e+03
    X[2,5,2]  c1        3.1969999999999995e+03
    X[2,5,2]  c15       1
    X[2,5,2]  c45       1
    X[2,5,3]  OBJ       4.9551998067425012e+02
    X[2,5,3]  c1        4.5999999999999994e+02
    X[2,5,3]  c16       1
    X[2,5,3]  c46       1
    U[1,1]    OBJ       2.5831798622455026e+05
    U[1,1]    c0        18164
    U[1,1]    c1        -18164
    U[1,1]    c17       -300
    U[1,1]    c18       -114
    U[1,1]    c19       -100
    U[1,1]    c47       -1
    U[1,2]    OBJ       8.9503968184476392e+05
    U[1,2]    c0        62936
    U[1,2]    c1        -62936
    U[1,2]    c20       -300
    U[1,2]    c21       -396
    U[1,2]    c22       -100
    U[1,2]    c48       -1
    U[1,3]    OBJ       3.1954122618803219e+05
    U[1,3]    c0        22469
    U[1,3]    c1        -22469
    U[1,3]    c23       -300
    U[1,3]    c24       -141
    U[1,3]    c25       -100
    U[1,3]    c49       -1
    U[1,4]    OBJ       3.0529135709548660e+05
    U[1,4]    c0        21467
    U[1,4]    c1        -21467
    U[1,4]    c26       -300
    U[1,4]    c27       -133
    U[1,4]    c28       -100
    U[1,4]    c50       -1
    U[1,5]    OBJ       5.5691105156096560e+05
    U[1,5]    c0        39160
    U[1,5]    c1        -39160
    U[1,5]    c29       -300
    U[1,5]    c30       -246
    U[1,5]    c31       -100
    U[1,5]    c51       -1
    U[2,1]    OBJ       4.2077277976113907e+05
    U[2,1]    c1        18164
    U[2,1]    c32       -300
    U[2,1]    c33       -114
    U[2,1]    c34       -100
    U[2,1]    c47       1
    U[2,2]    OBJ       1.4579253285095268e+06
    U[2,2]    c1        62936
    U[2,2]    c35       -300
    U[2,2]    c36       -396
    U[2,2]    c37       -100
    U[2,2]    c48       1
    U[2,3]    OBJ       5.2049898637156095e+05
    U[2,3]    c1        22469
    U[2,3]    c38       -300
    U[2,3]    c39       -141
    U[2,3]    c40       -100
    U[2,3]    c49       1
    U[2,4]    OBJ       4.9728745117443142e+05
    U[2,4]    c1        21467
    U[2,4]    c41       -300
    U[2,4]    c42       -133
    U[2,4]    c43       -100
    U[2,4]    c50       1
    U[2,5]    OBJ       9.0714941948063229e+05
    U[2,5]    c1        39160
    U[2,5]    c44       -300
    U[2,5]    c45       -246
    U[2,5]    c46       -100
    U[2,5]    c51       1
    MARKER    'MARKER'                 'INTEND'
    eta       OBJ       1
RHS
    RHS1      c0        100000000
    RHS1      c1        50000000
    RHS1      c2        300
    RHS1      c3        114
    RHS1      c4        100
    RHS1      c5        300
    RHS1      c6        396
    RHS1      c7        100
    RHS1      c8        300
    RHS1      c9        141
    RHS1      c10       100
    RHS1      c11       300
    RHS1      c12       133
    RHS1      c13       100
    RHS1      c14       300
    RHS1      c15       246
    RHS1      c16       100
BOUNDS
 LI BND1      X[1,1,1]  0
 LI BND1      X[1,1,2]  0
 LI BND1      X[1,1,3]  0
 LI BND1      X[1,2,1]  0
 LI BND1      X[1,2,2]  0
 LI BND1      X[1,2,3]  0
 LI BND1      X[1,3,1]  0
 LI BND1      X[1,3,2]  0
 LI BND1      X[1,3,3]  0
 LI BND1      X[1,4,1]  0
 LI BND1      X[1,4,2]  0
 LI BND1      X[1,4,3]  0
 LI BND1      X[1,5,1]  0
 LI BND1      X[1,5,2]  0
 LI BND1      X[1,5,3]  0
 LI BND1      X[2,1,1]  0
 LI BND1      X[2,1,2]  0
 LI BND1      X[2,1,3]  0
 LI BND1      X[2,2,1]  0
 LI BND1      X[2,2,2]  0
 LI BND1      X[2,2,3]  0
 LI BND1      X[2,3,1]  0
 LI BND1      X[2,3,2]  0
 LI BND1      X[2,3,3]  0
 LI BND1      X[2,4,1]  0
 LI BND1      X[2,4,2]  0
 LI BND1      X[2,4,3]  0
 LI BND1      X[2,5,1]  0
 LI BND1      X[2,5,2]  0
 LI BND1      X[2,5,3]  0
 BV BND1      U[1,1]  
 BV BND1      U[1,2]  
 BV BND1      U[1,3]  
 BV BND1      U[1,4]  
 BV BND1      U[1,5]  
 BV BND1      U[2,1]  
 BV BND1      U[2,2]  
 BV BND1      U[2,3]  
 BV BND1      U[2,4]  
 BV BND1      U[2,5]  
 LO BND1      eta       -100000000
ENDATA
